893536
7 8 54349
8 5 47658
5 35 22446
35 6 11794
6 12 23211
12 27 6411
27 28 17517
28 37 745
37 22 7449
22 33 31609
33 11 39715
11 32 3967
32 25 15458
25 36 14546
36 29 941
29 38 6375
38 24 4093
24 30 7859
30 19 21913
19 31 24202
31 4 3290
4 23 63665
23 21 45980
21 3 23621
3 18 26533
18 39 13572
39 17 18404
17 26 12606
26 1 15288
1 20 11546
20 0 6578
0 9 6947
9 10 5506
10 34 5412
34 15 56496
15 2 71701
2 13 30026
13 16 42391
16 14 45489
14 7 26227
